NAME : problems/30-tsp/instance-20.tsp
COMMENT : No Comment
TYPE : TSP
DIMENSION: 30
EDGE_WEIGHT_TYPE : EUC_2D
NODE_COORD_SECTION
1 1711 4607 
2 4319 5722 
3 6417 1923 
4 3057 7021 
5 3610 7084 
6 5245 7536 
7 3938 3922 
8 3336 3841 
9 2199 4169 
10 5720 6008 
11 9533 9538 
12 8463 7369 
13 7078 3446 
14 4797 6532 
15 7382 9546 
16 3277 5153 
17 6334 4449 
18 9670 9576 
19 1965 4496 
20 9389 3520 
21 4521 4832 
22 6489 2603 
23 2295 8266 
24 7876 1796 
25 986 5858 
26 7395 1458 
27 8414 4817 
28 4056 8813 
29 8278 9116 
30 9907 8042 
EOF
